words_hard_train/9738.qaiger
aag 96 14 0 1 82
2
4
8
16
26
40
48
62
70
92
100
124
132
150
192
6 2 4
10 6 9
12 7 8
14 11 13
18 14 17
20 15 16
22 19 21
24 22 3
28 26 2
30 25 29
32 28 19
34 33 21
36 3 9
38 37 4
42 38 40
44 39 41
46 43 45
50 47 49
52 46 48
54 51 53
56 35 54
58 57 53
60 45 4
64 61 63
66 60 62
68 65 67
72 69 71
74 68 70
76 73 75
78 59 76
80 31 79
82 22 26
84 80 83
86 79 75
88 44 63
90 89 4
94 91 93
96 90 92
98 95 97
102 99 101
104 98 100
106 103 105
108 86 107
110 84 109
112 34 55
114 113 57
116 53 77
118 114 117
120 88 93
122 121 4
126 123 125
128 122 124
130 127 129
134 130 132
136 104 134
138 118 137
140 110 138
142 131 133
144 142 105
146 120 125
148 147 4
152 149 150
154 148 151
156 153 155
158 151 4
160 158 146
162 161 132
164 156 162
166 160 133
168 165 167
170 145 168
172 140 171
174 87 106
176 156 133
178 177 163
180 175 179
182 143 104
184 182 177
186 185 169
188 186 135
190 180 189
192 172 190
i0 2 y2[0]
i1 2 y2[7]
i2 2 y2[1]
i3 1 x1[3]
i4 1 x1[2]
i5 2 y2[2]
i6 1 x1[4]
i7 2 y2[3]
i8 1 x1[5]
i9 2 y2[4]
i10 1 x1[6]
i11 2 y2[5]
i12 1 x1[7]
i13 2 y2[6]
o0 bool[0]
c
simplified
  ==
    add
      >> 2
        1 x1
      abs
        2 y2
    abs
      226
