words_hard_train/9738.qaiger.qdimacs
p cnf 96 247
a 66 35 8 13 50 24 0
e 1 2 3 4 5 6 7 9 10 11 12 14 15 16 17 18 19 20 21 22 23 25 26 27 28 29 30 31 32 33 34 36 37 38 39 40 41 42 43 44 45 46 47 48 49 51 52 53 54 55 56 57 58 59 60 61 62 63 64 65 67 68 69 70 71 72 73 74 75 76 77 78 79 80 81 82 83 84 85 86 87 88 89 90 91 92 93 94 95 96 0
-1 -2 3 0
1 -3 0
2 -3 0
-3 4 5 0
3 -5 0
-4 -5 0
3 -4 6 0
-3 -6 0
4 -6 0
5 6 7 0
-5 -7 0
-6 -7 0
-7 8 9 0
7 -9 0
-8 -9 0
7 -8 10 0
-7 -10 0
8 -10 0
9 10 11 0
-9 -11 0
-10 -11 0
-11 1 12 0
11 -12 0
-1 -12 0
-13 -1 14 0
13 -14 0
1 -14 0
12 14 15 0
-12 -15 0
-14 -15 0
-14 9 16 0
14 -16 0
-9 -16 0
16 10 17 0
-16 -17 0
-10 -17 0
1 4 18 0
-1 -18 0
-4 -18 0
18 -2 19 0
-18 -19 0
2 -19 0
-19 -20 21 0
19 -21 0
20 -21 0
19 20 22 0
-19 -22 0
-20 -22 0
21 22 23 0
-21 -23 0
-22 -23 0
23 24 25 0
-23 -25 0
-24 -25 0
-23 -24 26 0
23 -26 0
24 -26 0
25 26 27 0
-25 -27 0
-26 -27 0
17 -27 28 0
-17 -28 0
27 -28 0
28 26 29 0
-28 -29 0
-26 -29 0
22 -2 30 0
-22 -30 0
2 -30 0
30 31 32 0
-30 -32 0
-31 -32 0
-30 -31 33 0
30 -33 0
31 -33 0
32 33 34 0
-32 -34 0
-33 -34 0
34 35 36 0
-34 -36 0
-35 -36 0
-34 -35 37 0
34 -37 0
35 -37 0
36 37 38 0
-36 -38 0
-37 -38 0
29 -38 39 0
-29 -39 0
38 -39 0
15 39 40 0
-15 -40 0
-39 -40 0
-11 -13 41 0
11 -41 0
13 -41 0
-40 41 42 0
40 -42 0
-41 -42 0
39 37 43 0
-39 -43 0
-37 -43 0
-22 31 44 0
22 -44 0
-31 -44 0
44 -2 45 0
-44 -45 0
2 -45 0
45 46 47 0
-45 -47 0
-46 -47 0
-45 -46 48 0
45 -48 0
46 -48 0
47 48 49 0
-47 -49 0
-48 -49 0
49 50 51 0
-49 -51 0
-50 -51 0
-49 -50 52 0
49 -52 0
50 -52 0
51 52 53 0
-51 -53 0
-52 -53 0
-43 53 54 0
43 -54 0
-53 -54 0
-42 54 55 0
42 -55 0
-54 -55 0
-17 27 56 0
17 -56 0
-27 -56 0
56 28 57 0
-56 -57 0
-28 -57 0
26 38 58 0
-26 -58 0
-38 -58 0
-57 58 59 0
57 -59 0
-58 -59 0
-44 46 60 0
44 -60 0
-46 -60 0
60 -2 61 0
-60 -61 0
2 -61 0
61 62 63 0
-61 -63 0
-62 -63 0
-61 -62 64 0
61 -64 0
62 -64 0
63 64 65 0
-63 -65 0
-64 -65 0
-65 -66 67 0
65 -67 0
66 -67 0
-52 -67 68 0
52 -68 0
67 -68 0
-59 68 69 0
59 -69 0
-68 -69 0
-55 -69 70 0
55 -70 0
69 -70 0
65 66 71 0
-65 -71 0
-66 -71 0
-71 52 72 0
71 -72 0
-52 -72 0
-60 62 73 0
60 -73 0
-62 -73 0
73 -2 74 0
-73 -74 0
2 -74 0
74 -75 76 0
-74 -76 0
75 -76 0
-74 75 77 0
74 -77 0
-75 -77 0
76 77 78 0
-76 -78 0
-77 -78 0
75 -2 79 0
-75 -79 0
2 -79 0
-79 -73 80 0
79 -80 0
73 -80 0
80 -66 81 0
-80 -81 0
66 -81 0
-78 -81 82 0
78 -82 0
81 -82 0
-80 66 83 0
80 -83 0
-66 -83 0
82 83 84 0
-82 -84 0
-83 -84 0
72 -84 85 0
-72 -85 0
84 -85 0
-70 85 86 0
70 -86 0
-85 -86 0
43 -53 87 0
-43 -87 0
53 -87 0
-78 66 88 0
78 -88 0
-66 -88 0
88 81 89 0
-88 -89 0
-81 -89 0
87 89 90 0
-87 -90 0
-89 -90 0
71 -52 91 0
-71 -91 0
52 -91 0
-91 88 92 0
91 -92 0
-88 -92 0
92 84 93 0
-92 -93 0
-84 -93 0
-93 67 94 0
93 -94 0
-67 -94 0
-90 94 95 0
90 -95 0
-94 -95 0
-86 -95 96 0
86 -96 0
95 -96 0
96 0
